c   #vars: 35   #clauses: 161   #literals: 498
c 
p cnf 35 161
-2 21 22 -29 -30 0
15 16 -17 -18 0
-1 -2 0
-3 -4 0
-5 -6 0
-7 -8 0
-9 -10 0
-11 -12 0
-15 -16 0
-17 -18 0
-19 -20 0
1 2 17 18 0
1 2 29 30 0
1 2 -5 33 0
5 6 21 22 0
-21 -22 0
-4 14 27 28 0
-23 -24 0
7 8 -23 31 0
7 8 -15 31 0
-4 14 25 26 0
-7 15 16 31 0
-25 -26 0
15 16 -23 31 0
-11 15 16 31 0
-27 -28 0
-11 23 24 31 0
-29 -30 0
-5 9 10 33 0
11 12 13 27 28 32 0
7 8 -11 31 0
-34 -35 0
-15 -16 17 18 0
21 22 -29 -30 0
3 4 23 24 0
-11 13 -27 32 0
-21 -22 29 30 0
3 4 14 -26 0
14 -26 27 28 0
11 12 19 20 0
17 18 25 26 0
-1 -17 0
-2 -18 0
1 2 19 20 0
-1 -19 0
-2 -20 0
5 6 -7 -8 0
19 20 29 30 0
-1 -27 0
-2 -28 0
-1 -29 0
-2 -30 0
13 19 20 27 28 32 0
13 19 20 21 22 32 0
-2 -33 0
19 20 34 35 0
-11 19 20 32 0
11 12 13 21 22 32 0
-7 -8 -9 -10 0
14 25 26 -28 0
21 22 29 30 0
13 21 22 -27 0
-3 -14 0
-3 -23 0
-4 -24 0
13 -19 -27 32 0
-3 -25 0
-4 -26 0
-1 -2 -29 -30 0
-3 -27 0
-4 -28 0
9 10 34 35 0
-5 -17 0
-6 -18 0
-5 -19 0
-6 -20 0
9 10 23 24 0
-5 -21 0
-6 -22 0
-7 23 24 31 0
-2 -21 -22 29 30 0
3 4 25 26 0
-6 -33 0
1 2 -9 33 0
-7 -15 0
-8 -16 0
3 4 14 -28 0
11 12 -23 31 0
-1 -2 -22 -29 0
15 16 27 28 0
-8 -31 0
-13 -15 -16 17 18 0
-7 -34 0
-8 -35 0
7 8 15 16 0
-5 -6 7 8 0
-9 -23 0
-10 -24 0
-9 -25 0
-10 -26 0
13 -19 -21 32 0
-13 15 16 -17 -18 0
-10 -33 0
-9 -34 0
-10 -35 0
11 12 -19 32 0
-11 -19 0
-12 -20 0
-12 -31 0
5 6 19 20 0
-1 9 10 33 0
-12 -32 0
-1 -2 -21 -22 0
13 -21 27 28 0
11 12 13 -19 32 0
-13 -22 0
-11 13 19 20 32 0
-13 -28 0
-1 -2 -21 -30 0
5 6 -9 33 0
-13 -32 0
-5 -6 -9 -10 0
-7 11 12 31 0
21 22 25 26 0
-14 -25 0
-14 -27 0
5 6 17 18 0
-15 -27 0
-16 -28 0
-16 -31 0
-15 -34 0
-16 -35 0
9 10 25 26 0
-17 -25 0
-18 -26 0
-17 -29 0
-18 -30 0
-19 -29 0
-20 -30 0
11 12 -15 31 0
-1 5 6 33 0
-20 -32 0
-19 -34 0
-20 -35 0
7 8 34 35 0
-5 -8 -9 -10 0
15 16 34 35 0
-11 13 -21 32 0
1 2 27 28 0
17 18 29 30 0
-21 -25 0
-22 -26 0
21 22 27 28 0
-21 -27 0
-22 -28 0
-21 -29 0
-22 -30 0
-6 -7 -9 -10 0
-15 23 24 31 0
3 4 27 28 0
-24 -31 0
